TERM = { '.', 's(5)', 's(2)', 's(4)', 'in_1', 'local_0', 's(9)', 'local_1', 'in_2', 's(8)', 's(6)', 's(1)', 's(0)', 's(7)', 's(3)', 'in_0'};
null = '.';
s = 15;
n = 9;
ndeps = 13;
max_registers_sz = 5;
NR = 2;
registers = [|'local_0', 's(0)', |'local_1', 's(4)'|];
dependencies = [|'i32.load16_s_0', 'call[function_index(0)]_4', |'call[function_index(0)]_4', 'i32.load_5', |'i32.store8_7', 'i32.load_8', |'i32.store8_7', 'i32.load16_u_9', |'i32.store8_7', 'i32.load_11', |'i32.store8_7', 'i32.load16_s_12', |'i32.store16_13', 'i32.load16_u_14', |'i32.load8_u_3', 'call[function_index(0)]_4', |'i32.load_5', 'i32.store8_7', |'i32.load_8', 'i32.store16_13', |'i32.load16_u_9', 'i32.store16_13', |'i32.load_11', 'i32.store16_13', |'i32.load16_s_12', 'i32.store16_13'|];
GET_ENUM = { GET1, GET2, GET3, GET4, GET5, GET6, GET7};
SET_ENUM = { SET1, SET2, SET3, SET4, SET5, SET6, SET7};
TEE_ENUM = { TEE1, TEE2, TEE3, TEE4, TEE5, TEE6, TEE7};
N = 11;
OP = { 'call[function_index(0)]_4', 'i32.load16_s_0', 'i32.load8_u_3', 'i32.load_5', 'i32.store8_7', 'i32.load_8', 'i32.load16_u_9', 'i32.load_11', 'i32.load16_s_12', 'i32.store16_13', 'i32.load16_u_14' };
in_ops = [0, 1, 1, 1, 2, 1, 1, 1, 1, 2, 1 ];
out_ops = [2, 1, 1, 1, 0, 1, 1, 1, 1, 0, 1 ];
in1 = ['.', 'in_0', 'in_1', 's(3)', 's(4)', 's(1)', 's(5)', 's(0)', 's(7)', 's(8)', 'in_2' ];
in2 = ['.', '.', '.', '.', 's(2)', '.', '.', '.', '.', 's(6)', '.' ];
in3 = ['.', '.', '.', '.', '.', '.', '.', '.', '.', '.', '.' ];
out1 = ['s(3)', 's(0)', 's(1)', 's(4)', '.', 's(5)', 's(6)', 's(7)', 's(8)', '.', 's(9)' ];
out2 = ['s(2)', '.', '.', '.', '.', '.', '.', '.', '.', '.', '.' ];
out3 = ['.', '.', '.', '.', '.', '.', '.', '.', '.', '.', '.' ];
comm = [false, false, false, false, false, false, false, false, false, false, false ];
gas = [1, 1, 1, 1, 1, 1, 1, 1, 1, 1, 1 ];
sz = [1, 1, 1, 1, 1, 1, 1, 1, 1, 1, 1 ];
stor = [true, false, false, false, true, false, false, false, false, true, false ];
lb = [ 1, 1, 1, 1, 1, 1, 1, 1, 1, 1, 1 ];
ub = [ 15, 15, 15, 15, 15, 15, 15, 15, 15, 15, 15 ];
startstack = [ 'in_0', 'in_1', 'in_2', null, null, null, null, null, null ];
endstack = [ 's(9)', null, null, null, null, null, null, null, null ];
